c description: Random 3-CNF over 22 variables and 94 clauses
c generator: CNFgen (0.9.2)
c copyright: (C) 2012-2022 Massimo Lauria <massimo.lauria@uniroma1.it>
c url: https://massimolauria.net/cnfgen
c command line: cnfgen --output CNF_4.28/22_bit_94_569.cnf randkcnf 3 22 94
c
p cnf 22 94
-7 -10 -13 0
3 -9 -15 0
13 -14 17 0
-2 -7 21 0
10 11 -13 0
5 -9 -11 0
-5 -16 -17 0
9 19 22 0
6 -13 -18 0
-2 7 -9 0
-6 12 -21 0
2 -7 -11 0
6 -7 14 0
-6 7 19 0
-5 6 22 0
6 8 17 0
-7 9 21 0
-1 -15 -18 0
-7 10 -18 0
-4 14 -18 0
-1 -10 -14 0
4 -8 22 0
3 -10 19 0
3 5 20 0
-2 -12 -18 0
-2 -10 -22 0
-5 11 20 0
9 10 19 0
-5 11 15 0
-12 17 -21 0
-5 -9 14 0
2 15 -20 0
-5 14 15 0
10 15 -17 0
-6 10 17 0
-3 -10 -17 0
4 5 -17 0
9 10 -18 0
-4 -18 -22 0
-5 10 -19 0
11 -15 -20 0
-1 11 -20 0
-2 13 -14 0
-6 -11 -18 0
-8 -17 20 0
-3 -9 -16 0
2 -9 10 0
1 8 14 0
-20 -21 -22 0
-9 -10 -16 0
-8 16 -19 0
3 9 16 0
11 -15 -16 0
-3 4 -18 0
8 11 14 0
-4 -13 -22 0
1 -2 19 0
-14 -17 -21 0
-5 7 -20 0
6 -13 -14 0
2 10 20 0
-1 5 -6 0
-2 10 -17 0
1 10 -16 0
-7 -9 -14 0
2 -4 -9 0
-11 -13 -22 0
9 -11 -17 0
2 3 12 0
-13 -14 22 0
-3 -5 21 0
-7 -9 -22 0
6 8 -9 0
6 -16 -20 0
5 -13 17 0
-2 -14 19 0
-3 -5 -9 0
-3 -11 -17 0
-3 9 -10 0
3 6 7 0
-2 6 -12 0
9 11 15 0
-12 -18 -22 0
3 4 -21 0
-1 -6 -13 0
-15 -18 -20 0
-8 13 22 0
2 -11 -12 0
-10 13 15 0
-7 14 19 0
11 12 22 0
2 8 -15 0
8 -20 -22 0
-1 5 -7 0
